
Gurobi 9.5.1 (mac64[x86]) logging started Wed Jun  8 19:15:30 2022

Set parameter LogFile to value "/Users/keyvanmajd/Documents/GitHub/NNRepLayer_v2/demos/walking_example/dynamic_constraint/repair_net/logs/opt_log_6_8_2022_19_15_8.log"
Gurobi Optimizer version 9.5.1 build v9.5.1rc2 (mac64[x86])
Thread count: 4 physical cores, 8 logical processors, using up to 8 threads
Optimize a model with 366 rows, 134 columns and 1056 nonzeros
Model fingerprint: 0xe62612aa
Model has 101 quadratic objective terms
Coefficient statistics:
  Matrix range     [3e-03, 2e+01]
  Objective range  [3e-02, 4e+00]
  QObjective range [2e-01, 2e+00]
  Bounds range     [1e+01, 5e+01]
  RHS range        [6e-04, 2e+01]
Presolve removed 219 rows and 11 columns
Presolve time: 0.00s
Presolved: 147 rows, 123 columns, 838 nonzeros
Presolved model has 101 quadratic objective terms
Ordering time: 0.00s

Barrier statistics:
 Dense cols : 12
 AA' NZ     : 1.066e+03
 Factor NZ  : 1.816e+03
 Factor Ops : 3.260e+04 (less than 1 second per iteration)
 Threads    : 1

                  Objective                Residual
Iter       Primal          Dual         Primal    Dual     Compl     Time
   0   4.03223619e+07 -4.05083628e+07  3.82e+03 7.31e+02  8.84e+05     0s
   1   1.26762546e+07 -1.29894780e+07  2.07e+03 3.96e+02  4.87e+05     0s
   2   1.32646903e+05 -1.01909638e+06  2.13e+02 4.08e+01  6.99e+04     0s
   3   2.36007536e+02 -6.67057831e+05  3.22e+00 6.17e-01  3.19e+03     0s
   4   1.85184808e+02 -4.01372859e+05  1.58e+00 3.02e-01  1.69e+03     0s
   5   1.61649070e+02 -1.10721012e+05  2.57e-01 4.92e-02  3.96e+02     0s
   6   1.58608532e+02 -1.30832653e+03  1.61e-03 3.07e-04  4.96e+00     0s
   7   1.45031220e+02 -8.35326719e+01  2.43e-04 4.65e-05  7.72e-01     0s
   8   1.16856362e+02  5.50712425e+01  3.83e-05 7.33e-06  2.09e-01     0s
   9   1.11752885e+02  7.99907424e+01  7.61e-06 1.46e-06  1.07e-01     0s
  10   1.07850375e+02  1.01702945e+02  1.31e-06 2.50e-07  2.08e-02     0s
  11   1.07216392e+02  1.05906747e+02  1.71e-07 3.28e-08  4.42e-03     0s
  12   1.07132478e+02  1.06808331e+02  2.07e-10 3.96e-11  1.10e-03     0s
  13   1.07102388e+02  1.07051485e+02  3.01e-11 5.78e-12  1.72e-04     0s
  14   1.07097165e+02  1.07095248e+02  3.01e-12 2.31e-12  6.47e-06     0s
  15   1.07096939e+02  1.07096925e+02  6.05e-12 5.64e-11  4.52e-08     0s
  16   1.07096934e+02  1.07096934e+02  2.86e-10 6.96e-10  5.31e-11     0s

Barrier solved model in 16 iterations and 0.00 seconds (0.00 work units)
Optimal objective 1.07096934e+02

